# Solution for model GasLib-40
# Objective value = 1.1722350595054571e+01
loadshed[innode_1] 0
loadshed[innode_2] 0
loadshed[innode_3] 0
loadshed[innode_4] 0
loadshed[innode_5] 0
loadshed[innode_6] 0
loadshed[innode_7] 0
loadshed[innode_8] 0
loadshed[source_1] -2.2525604535806831e-01
loadshed[source_2] 1.0526363455883148e-01
loadshed[source_3] 1.9414213562615223e-01
loadshed[sink_1] 0
loadshed[sink_2] 0
loadshed[sink_3] 0
loadshed[sink_4] 0
loadshed[sink_5] 0
loadshed[sink_6] 0
loadshed[sink_7] 0
loadshed[sink_8] 0
loadshed[sink_9] 0
loadshed[sink_10] 0
loadshed[sink_11] 0
loadshed[sink_12] 7.1678067332817752e-01
loadshed[sink_13] 0
loadshed[sink_14] 0
loadshed[sink_15] 0
loadshed[sink_16] 0
loadshed[sink_17] 0
loadshed[sink_18] 0
loadshed[sink_19] 0
loadshed[sink_20] 0
loadshed[sink_21] 0
loadshed[sink_22] 0
loadshed[sink_23] 0
loadshed[sink_24] 0
loadshed[sink_25] 0
loadshed[sink_26] 0
loadshed[sink_27] 0
loadshed[sink_28] 0
loadshed[sink_29] 0
flow[source_1,sink_3] 1.9370106855955851e+02
flow[innode_1,sink_16] 1.6354166666666970e+01
flow[innode_6,sink_13] -1.2919126961601549e+01
flow[sink_13,sink_14] -2.9273293628268217e+01
flow[sink_14,sink_10] -4.5627460294934885e+01
flow[sink_25,sink_26] 1.7904788750300494e+02
flow[sink_26,sink_9] 1.3546514940494544e+02
flow[sink_9,sink_18] 1.1911098273827876e+02
flow[sink_26,sink_4] 2.7228571431393391e+01
flow[sink_4,sink_20] 0
flow[sink_18,sink_6] 1.0275681607161209e+02
flow[sink_25,innode_8] -1.6099273522622215e+02
flow[sink_6,sink_7] 5.3694316071612107e+01
flow[sink_6,sink_22] 3.2708333333333641e+01
flow[sink_7,sink_24] 3.7340149404945436e+01
flow[sink_22,sink_1] 1.6354166666666970e+01
flow[sink_24,sink_21] 2.0985982738278764e+01
flow[sink_21,sink_12] 4.6318160716120973e+00
flow[sink_7,sink_5] 0
flow[sink_5,sink_17] -1.6354166666667197e+01
flow[sink_17,sink_4] -1.0874404764726705e+01
flow[sink_17,sink_8] -2.1833928568607195e+01
flow[sink_3,sink_23] 16.3541666666697
flow[sink_8,sink_20] -3.8188095235273863e+01
flow[sink_25,sink_20] 5.4542261901940662e+01
flow[sink_25,sink_15] -7.6032453883787937e+01
flow[sink_15,sink_29] -9.2386620550454609e+01
flow[sink_29,sink_28] 1.6354166666667879e+01
flow[sink_29,sink_2] 1.6354166666684250e+01
flow[sink_2,sink_15] 0
flow[sink_29,innode_7] -1.4144912055047362e+02
flow[innode_4,sink_19] 4.9725429024993090e+01
flow[sink_19,innode_3] 4.6208300937822393e+01
flow[innode_4,innode_5] 7.7672864603275272e+01
flow[sink_27,innode_5] -7.7672864603275272e+01
flow[sink_27,sink_19] 6.1318697936608608e+01
flow[sink_10,sink_11] 3.2708333333333641e+01
flow[sink_10,innode_2] -48.4816593571128
flow[sink_10,innode_3] -4.6208300937822393e+01
flow[innode_6,sink_25] 1.2919126961601549e+01
flow[sink_11,innode_1] 1.6354166666666970e+01
flow[sink_19,innode_2] 48.4816593571128
flow[source_3,innode_4] 1.2739829362826836e+02
flow[source_2,innode_7] 1.4144912055047362e+02
flow[sink_3,innode_8] 1.6099273522622215e+02
pressure[innode_1] 7.6284588928644268e+01
pressure[innode_2] 7.8998746169082239e+01
pressure[innode_3] 7.8896423119177882e+01
pressure[innode_4] 81.01325
pressure[innode_5] 8.0959822508023038e+01
pressure[innode_6] 7.4154567391479574e+01
pressure[innode_7] 81.01325
pressure[innode_8] 8.0365781324295654e+01
pressure[source_1] 81.01325
pressure[source_2] 81.01325
pressure[source_3] 81.01325
pressure[sink_1] 4.4281610091821655e+01
pressure[sink_2] 76.8157706531043
pressure[sink_3] 8.0365781324295654e+01
pressure[sink_4] 5.8082418781159994e+01
pressure[sink_5] 5.6448567682938709e+01
pressure[sink_6] 4.6382687702209026e+01
pressure[sink_7] 4.5645592730424170e+01
pressure[sink_8] 5.8490685736338584e+01
pressure[sink_9] 5.3436391005823765e+01
pressure[sink_10] 7.6436290236247814e+01
pressure[sink_11] 7.6284588928644268e+01
pressure[sink_12] 1.0132500000000013e+00
pressure[sink_13] 74.2257883794322
pressure[sink_14] 7.4278175431913255e+01
pressure[sink_15] 7.4523398880499144e+01
pressure[sink_16] 7.5262939093826589e+01
pressure[sink_17] 5.7666834888293458e+01
pressure[sink_18] 4.9126600638569094e+01
pressure[sink_19] 7.8998746169082239e+01
pressure[sink_20] 6.1151858924703312e+01
pressure[sink_21] 2.6615036585606235e+00
pressure[sink_22] 4.5345379234176661e+01
pressure[sink_23] 8.0201063312635881e+01
pressure[sink_24] 2.8939039190836837e+00
pressure[sink_25] 7.4154567391479574e+01
pressure[sink_26] 6.1544329823636147e+01
pressure[sink_27] 8.0315281255837348e+01
pressure[sink_28] 7.6934757877950773e+01
pressure[sink_29] 7.7230040151567948e+01
interdiction[source_1,sink_3] 0
interdiction[innode_1,sink_16] 0
interdiction[innode_6,sink_13] 0
interdiction[sink_13,sink_14] 0
interdiction[sink_14,sink_10] 0
interdiction[sink_25,sink_26] 0
interdiction[sink_26,sink_9] 0
interdiction[sink_9,sink_18] 0
interdiction[sink_26,sink_4] 0
interdiction[sink_4,sink_20] 1
interdiction[sink_18,sink_6] 0
interdiction[sink_25,innode_8] 0
interdiction[sink_6,sink_7] 0
interdiction[sink_6,sink_22] 0
interdiction[sink_7,sink_24] 0
interdiction[sink_22,sink_1] 0
interdiction[sink_24,sink_21] 0
interdiction[sink_21,sink_12] 0
interdiction[sink_7,sink_5] 1
interdiction[sink_5,sink_17] 0
interdiction[sink_17,sink_4] 0
interdiction[sink_17,sink_8] 0
interdiction[sink_3,sink_23] 0
interdiction[sink_8,sink_20] 0
interdiction[sink_25,sink_20] 0
interdiction[sink_25,sink_15] 0
interdiction[sink_15,sink_29] 0
interdiction[sink_29,sink_28] 0
interdiction[sink_29,sink_2] 0
interdiction[sink_2,sink_15] 1
interdiction[sink_29,innode_7] 0
interdiction[innode_4,sink_19] 0
interdiction[sink_19,innode_3] 0
interdiction[innode_4,innode_5] 0
interdiction[sink_27,innode_5] 0
interdiction[sink_27,sink_19] 0
interdiction[sink_10,sink_11] 0
interdiction[sink_10,innode_2] 0
interdiction[sink_10,innode_3] 0
interdiction[innode_6,sink_25] 0
interdiction[sink_11,innode_1] 0
interdiction[sink_19,innode_2] 0
interdiction[source_3,innode_4] 0
interdiction[source_2,innode_7] 0
interdiction[sink_3,innode_8] 0
WCcheckFlow[source_1,sink_3] 39
WCcheckFlow[innode_1,sink_16] 1
WCcheckFlow[innode_6,sink_13] 13
WCcheckFlow[sink_13,sink_14] 12
WCcheckFlow[sink_14,sink_10] 11
WCcheckFlow[sink_25,sink_26] 15
WCcheckFlow[sink_26,sink_9] 9
WCcheckFlow[sink_9,sink_18] 8
WCcheckFlow[sink_26,sink_4] 5
WCcheckFlow[sink_4,sink_20] 0
WCcheckFlow[sink_18,sink_6] 7
WCcheckFlow[sink_25,innode_8] -36
WCcheckFlow[sink_6,sink_7] 4
WCcheckFlow[sink_6,sink_22] 2
WCcheckFlow[sink_7,sink_24] 3
WCcheckFlow[sink_22,sink_1] 1
WCcheckFlow[sink_24,sink_21] 2
WCcheckFlow[sink_21,sink_12] 1
WCcheckFlow[sink_7,sink_5] 0
WCcheckFlow[sink_5,sink_17] -1
WCcheckFlow[sink_17,sink_4] -4
WCcheckFlow[sink_17,sink_8] 2
WCcheckFlow[sink_3,sink_23] 1
WCcheckFlow[sink_8,sink_20] 1
WCcheckFlow[sink_25,sink_20] 0
WCcheckFlow[sink_25,sink_15] 6
WCcheckFlow[sink_15,sink_29] 5
WCcheckFlow[sink_29,sink_28] 1
WCcheckFlow[sink_29,sink_2] 1
WCcheckFlow[sink_2,sink_15] 0
WCcheckFlow[sink_29,innode_7] 2
WCcheckFlow[innode_4,sink_19] -4
WCcheckFlow[sink_19,innode_3] -5
WCcheckFlow[innode_4,innode_5] 2
WCcheckFlow[sink_27,innode_5] -1
WCcheckFlow[sink_27,sink_19] 0
WCcheckFlow[sink_10,sink_11] 3
WCcheckFlow[sink_10,innode_2] 1
WCcheckFlow[sink_10,innode_3] 6
WCcheckFlow[innode_6,sink_25] -14
WCcheckFlow[sink_11,innode_1] 2
WCcheckFlow[sink_19,innode_2] 0
WCcheckFlow[source_3,innode_4] -1
WCcheckFlow[source_2,innode_7] -1
WCcheckFlow[sink_3,innode_8] 37
